unsat
(error "line 1151 column 17: model is not available")
(error "line 1152 column 17: model is not available")
(error "line 1153 column 18: model is not available")
(error "line 1154 column 18: model is not available")
(error "line 1155 column 18: model is not available")
(error "line 1156 column 18: model is not available")
(error "line 1157 column 18: model is not available")
(error "line 1158 column 18: model is not available")
(error "line 1159 column 18: model is not available")
(error "line 1160 column 18: model is not available")
(error "line 1161 column 18: model is not available")
(error "line 1162 column 17: model is not available")
(error "line 1163 column 17: model is not available")
(error "line 1164 column 17: model is not available")
(error "line 1165 column 17: model is not available")
(error "line 1166 column 17: model is not available")
(error "line 1167 column 17: model is not available")
(error "line 1168 column 17: model is not available")
(error "line 1169 column 17: model is not available")
(error "line 1170 column 38: model is not available")
(error "line 1171 column 45: model is not available")
(error "line 1172 column 38: model is not available")
(error "line 1173 column 45: model is not available")
(error "line 1174 column 46: model is not available")
(error "line 1175 column 53: model is not available")
(error "line 1176 column 40: model is not available")
(error "line 1177 column 47: model is not available")
(error "line 1178 column 38: model is not available")
(error "line 1179 column 45: model is not available")
(error "line 1180 column 38: model is not available")
(error "line 1181 column 45: model is not available")
(error "line 1182 column 41: model is not available")
(error "line 1183 column 48: model is not available")
(error "line 1184 column 41: model is not available")
(error "line 1185 column 48: model is not available")
(error "line 1186 column 41: model is not available")
(error "line 1187 column 48: model is not available")
(error "line 1188 column 41: model is not available")
(error "line 1189 column 41: model is not available")
(error "line 1190 column 48: model is not available")
(error "line 1191 column 37: model is not available")
(error "line 1192 column 44: model is not available")
(error "line 1193 column 42: model is not available")
(error "line 1194 column 42: model is not available")
(error "line 1195 column 42: model is not available")
(error "line 1196 column 38: model is not available")
(error "line 1197 column 38: model is not available")
(error "line 1198 column 38: model is not available")
(error "line 1199 column 38: model is not available")
(error "line 1200 column 38: model is not available")
(error "line 1201 column 41: model is not available")
(error "line 1202 column 48: model is not available")
(error "line 1203 column 22: model is not available")
(error "line 1204 column 20: model is not available")
(error "line 1205 column 22: model is not available")
(error "line 1206 column 22: model is not available")
(error "line 1207 column 29: model is not available")
(error "line 1208 column 38: model is not available")
(error "line 1209 column 38: model is not available")
(error "line 1210 column 38: model is not available")
(error "line 1211 column 18: model is not available")
(error "line 1212 column 25: model is not available")
(error "line 1213 column 19: model is not available")
(error "line 1214 column 19: model is not available")
(error "line 1215 column 26: model is not available")
(error "line 1216 column 19: model is not available")
(error "line 1217 column 18: model is not available")
(error "line 1218 column 25: model is not available")
(error "line 1219 column 18: model is not available")
(error "line 1220 column 18: model is not available")
(error "line 1221 column 25: model is not available")
(error "line 1222 column 18: model is not available")
(error "line 1223 column 25: model is not available")
(error "line 1224 column 18: model is not available")
(error "line 1225 column 25: model is not available")
(error "line 1226 column 18: model is not available")
(error "line 1227 column 25: model is not available")
(error "line 1228 column 18: model is not available")
(error "line 1229 column 18: model is not available")
(error "line 1230 column 25: model is not available")
(error "line 1231 column 18: model is not available")
(error "line 1232 column 25: model is not available")
(error "line 1233 column 19: model is not available")
(error "line 1234 column 26: model is not available")
(error "line 1235 column 19: model is not available")
(error "line 1236 column 26: model is not available")
(error "line 1237 column 19: model is not available")
(error "line 1238 column 26: model is not available")
(error "line 1239 column 18: model is not available")
(error "line 1240 column 25: model is not available")
(error "line 1241 column 18: model is not available")
(error "line 1242 column 18: model is not available")
(error "line 1243 column 25: model is not available")
(error "line 1244 column 18: model is not available")
(error "line 1245 column 18: model is not available")
(error "line 1246 column 25: model is not available")
(error "line 1247 column 18: model is not available")
(error "line 1248 column 18: model is not available")
(error "line 1249 column 25: model is not available")
(error "line 1250 column 18: model is not available")
(error "line 1251 column 36: model is not available")
(error "line 1252 column 36: model is not available")
(error "line 1253 column 36: model is not available")
(error "line 1254 column 35: model is not available")
(error "line 1255 column 35: model is not available")
(error "line 1256 column 35: model is not available")
(error "line 1257 column 35: model is not available")
(error "line 1258 column 31: model is not available")
(error "line 1259 column 33: model is not available")
(error "line 1260 column 40: model is not available")
(error "line 1261 column 33: model is not available")
(error "line 1262 column 40: model is not available")
(error "line 1263 column 31: model is not available")
(error "line 1264 column 33: model is not available")
(error "line 1265 column 40: model is not available")
(error "line 1266 column 33: model is not available")
(error "line 1267 column 40: model is not available")
(error "line 1268 column 31: model is not available")
(error "line 1269 column 31: model is not available")
(error "line 1270 column 52: model is not available")
(error "line 1271 column 51: model is not available")
(error "line 1272 column 51: model is not available")
(error "line 1273 column 51: model is not available")
(error "line 1274 column 51: model is not available")
(error "line 1275 column 51: model is not available")
(error "line 1276 column 53: model is not available")
(error "line 1277 column 52: model is not available")
(error "line 1278 column 52: model is not available")
(error "line 1279 column 52: model is not available")
(error "line 1280 column 52: model is not available")
(error "line 1281 column 51: model is not available")
(error "line 1282 column 51: model is not available")
(error "line 1283 column 51: model is not available")
(error "line 1284 column 52: model is not available")
(error "line 1285 column 51: model is not available")
(error "line 1286 column 51: model is not available")
(error "line 1287 column 51: model is not available")
(error "line 1288 column 52: model is not available")
(error "line 1289 column 51: model is not available")
(error "line 1290 column 51: model is not available")
(error "line 1291 column 51: model is not available")
(error "line 1292 column 50: model is not available")
(error "line 1293 column 50: model is not available")
(error "line 1294 column 50: model is not available")
(error "line 1295 column 50: model is not available")
(error "line 1296 column 51: model is not available")
(error "line 1297 column 51: model is not available")
(error "line 1298 column 51: model is not available")
(error "line 1299 column 51: model is not available")
(error "line 1300 column 51: model is not available")
(error "line 1301 column 51: model is not available")
(error "line 1302 column 51: model is not available")
(error "line 1303 column 51: model is not available")
(error "line 1304 column 56: model is not available")
(error "line 1305 column 56: model is not available")
(error "line 1306 column 56: model is not available")
(error "line 1307 column 55: model is not available")
(error "line 1308 column 55: model is not available")
(error "line 1309 column 55: model is not available")
(error "line 1310 column 46: model is not available")
(error "line 1311 column 46: model is not available")
(error "line 1312 column 46: model is not available")
(error "line 1313 column 46: model is not available")
(error "line 1314 column 54: model is not available")
(error "line 1315 column 54: model is not available")
(error "line 1316 column 54: model is not available")
(error "line 1317 column 54: model is not available")
(error "line 1318 column 54: model is not available")
(error "line 1319 column 54: model is not available")
(error "line 1320 column 40: model is not available")
(error "line 1321 column 40: model is not available")
(error "line 1322 column 40: model is not available")
(error "line 1323 column 40: model is not available")
(error "line 1324 column 41: model is not available")
(error "line 1325 column 41: model is not available")
(error "line 1326 column 41: model is not available")
(error "line 1327 column 41: model is not available")
(error "line 1328 column 50: model is not available")
(error "line 1329 column 50: model is not available")
(error "line 1330 column 50: model is not available")
(error "line 1331 column 50: model is not available")
(error "line 1332 column 43: model is not available")
(error "line 1333 column 43: model is not available")
(error "line 1334 column 43: model is not available")
(error "line 1335 column 43: model is not available")
(error "line 1336 column 26: model is not available")
(error "line 1337 column 27: model is not available")
(error "line 1338 column 34: model is not available")
(error "line 1339 column 34: model is not available")
(error "line 1340 column 30: model is not available")
(error "line 1341 column 30: model is not available")
(error "line 1342 column 32: model is not available")
(error "line 1343 column 32: model is not available")
(error "line 1344 column 32: model is not available")
(error "line 1345 column 32: model is not available")
(error "line 1346 column 32: model is not available")
(error "line 1347 column 28: model is not available")
(error "line 1348 column 34: model is not available")
(error "line 1349 column 34: model is not available")
(error "line 1350 column 32: model is not available")
(error "line 1351 column 32: model is not available")
(error "line 1352 column 32: model is not available")
(error "line 1353 column 32: model is not available")
(error "line 1354 column 32: model is not available")
(error "line 1355 column 28: model is not available")
(error "line 1357 column 10: model is not available")
(:added-eqs                      3532
 :arith-bound-propagations-cheap 830
 :arith-bound-propagations-lp    174
 :arith-conflicts                4
 :arith-lower                    454
 :arith-make-feasible            336
 :arith-max-columns              75
 :arith-max-rows                 52
 :arith-propagations             830
 :arith-upper                    481
 :binary-propagations            18016
 :bv-bit2core                    19170
 :bv-diseqs                      6
 :bv-dynamic-diseqs              52
 :bv->core-eq                    289
 :conflicts                      255
 :decisions                      1024
 :del-clause                     2210
 :eliminated-applications        18
 :eliminated-vars                9
 :max-memory                     4.44
 :memory                         3.13
 :minimized-lits                 2668
 :mk-bool-var                    2757
 :mk-clause                      4307
 :num-allocs                     1858118
 :num-checks                     1
 :propagations                   33818
 :restarts                       2
 :rlimit-count                   146137
 :time                           0.03
 :total-time                     0.04)

real	0m0.041s
user	0m0.038s
sys	0m0.004s
State: RE Run_time: 0.043358564376831055